90
0 65 73 56 58 31 12 32 87 81 
45 42 72 83 22 66 51 37 71 67 
10 21 23 61 17 8 80 24 20 85 
50 14 1 26 28 41 13 49 54 18 
27 33 63 9 89 15 16 53 62 5 
60 76 25 77 3 74 47 84 48 30 
86 46 11 55 44 69 4 7 40 38 
36 88 29 34 43 57 19 68 52 35 
70 59 6 64 75 2 79 82 39 78 
